25855.7
99 2 19 87 37 72 33 5 14 54 58 31 6 9 32 26 73 34 48 8 36 86 35 44 46 7 0 95 28 27 62 96 98 13 78 85 3 71 69 94 50 24 81 88 45 83 10 11 80 97 77 65 57 39 47 22 59 53 51 42 21 91 74 18 52 38 79 23 15 89 56 93 43 66 92 75 20 55 49 60 30 70 12 1 64 82 40 29 4 25 41 16 90 76 84 63 61 67 17 68 
